Route #1: 1 42 28 15 45 1 
Route #2: 1 1 6 35 26 49 1 
Route #3: 1 33 51 2 1 
Route #4: 1 22 43 41 23 44 1 
Route #5: 1 30 27 54 19 1 
Route #6: 1 48 52 8 7 1 
Route #7: 1 16 18 3 17 1 
Route #8: 1 32 25 50 1 
Route #9: 1 21 13 4 1 
Route #10: 1 5 46 34 1 
Route #11: 1 29 37 36 47 1 
Route #12: 1 24 9 1 
Route #13: 1 12 10 53 1 
Route #14: 1 40 39 1 
Route #15: 1 20 14 1 
Route #16: 1 38 11 1 
Route #17: 1 31 1 

Cost 1637.69
Time 0.6854


 * Another infos *

 Iterations: 55 Time: 0.6854 sec - 0.0114 min - 0.0002 horas
0.0000 h 0.0114 min
Problem dimension: 55
